100 8
652 423
119 387
730 890
236 279
167 949
436 130
519 335
79 310
488 188
814 771
41 945
857 693
398 372
642 125
843 730
762 825
316 408
113 802
447 563
96 558
371 329
130 617
907 839
772 899
439 601
68 721
283 450
102 684
443 173
859 837
590 403
177 204
85 956
952 336
271 481
205 986
195 538
269 137
53 682
653 107
99 731
445 196
368 522
409 192
916 817
756 772
830 712
125 267
127 133
889 347
304 208
413 233
752 750
609 457
503 577
909 472
80 395
647 226
97 740
905 799
239 322
692 172
674 121
184 245
743 615
209 539
256 279
848 776
335 567
442 329
357 463
286 454
560 460
21 676
384 432
269 365
485 666
121 192
355 415
241 377
414 588
777 128
791 788
389 218
674 650
260 105
475 365
643 405
382 666
143 990
203 316
710 491
192 733
169 280
150 274
323 413
209 315
432 522
396 272
161 705
